; quart :: corpus-study/repo_src/quart/src/quart/app.py :: EVENT 'Quart.run::shutdown_event' :: structured encoding (verdict: unsat)
; Generated by snf-pipeline (encoder.py) -- run with any
; SMT-LIB2-compliant solver, e.g. `z3 quart__corpus-study_repo_src_quart_src_quart_app.py__Quart.run__shutdown_event__structured.smt2`
; benchmark generated from python API
(set-info :status unknown)
(assert
 false)
(check-sat)
